c colouring generated by benchmark framework
p edge 23 71
v 1 2
v 2 0
v 3 1
v 4 4
v 5 2
v 6 2
v 7 3
v 8 4
v 9 3
v 10 2
v 11 1
v 12 1
v 13 3
v 14 1
v 15 1
v 16 0
v 17 3
v 18 0
v 19 3
v 20 0
v 21 0
v 22 0
v 23 2
